NAME          
ROWS
 N  OBJ
 L  c1
 L  c2
 L  c3
 L  c4
 L  c5
COLUMNS
    MARKER    'MARKER'                 'INTORG'
    x[1]      c1        995
    x[1]      c2        500
    x[1]      c3        412
    x[1]      c4        649
    x[1]      c5        134
    x[1]      OBJ       -4
    x[2]      c1        431
    x[2]      c2        932
    x[2]      c3        468
    x[2]      c4        220
    x[2]      c5        162
    x[2]      OBJ       -571
    x[3]      c1        307
    x[3]      c2        466
    x[3]      c3        929
    x[3]      c4        217
    x[3]      c5        39
    x[3]      OBJ       -629
    x[4]      c1        574
    x[4]      c2        313
    x[4]      c3        581
    x[4]      c4        770
    x[4]      c5        950
    x[4]      OBJ       -852
    x[5]      c1        604
    x[5]      c2        964
    x[5]      c3        479
    x[5]      c4        720
    x[5]      c5        935
    x[5]      OBJ       -280
    x[6]      c1        483
    x[6]      c2        51
    x[6]      c3        436
    x[6]      c4        17
    x[6]      c5        300
    x[6]      OBJ       -852
    x[7]      c1        333
    x[7]      c2        170
    x[7]      c3        520
    x[7]      c4        140
    x[7]      c5        346
    x[7]      OBJ       -587
    x[8]      c1        561
    x[8]      c2        237
    x[8]      c3        772
    x[8]      c4        61
    x[8]      c5        751
    x[8]      OBJ       -201
    x[9]      c1        175
    x[9]      c2        694
    x[9]      c3        101
    x[9]      c4        178
    x[9]      c5        717
    x[9]      OBJ       -434
    x[10]     c1        76
    x[10]     c2        588
    x[10]     c3        68
    x[10]     c4        653
    x[10]     c5        385
    x[10]     OBJ       -198
    x[11]     c1        168
    x[11]     c2        131
    x[11]     c3        958
    x[11]     c4        443
    x[11]     c5        20
    x[11]     OBJ       -826
    x[12]     c1        803
    x[12]     c2        455
    x[12]     c3        660
    x[12]     c4        8
    x[12]     c5        872
    x[12]     OBJ       -71
    x[13]     c1        749
    x[13]     c2        100
    x[13]     c3        115
    x[13]     c4        946
    x[13]     c5        117
    x[13]     OBJ       -543
    x[14]     c1        838
    x[14]     c2        761
    x[14]     c3        451
    x[14]     c4        343
    x[14]     c5        442
    x[14]     OBJ       -744
    x[15]     c1        278
    x[15]     c2        837
    x[15]     c3        181
    x[15]     c4        871
    x[15]     c5        181
    x[15]     OBJ       -39
    x[16]     c1        641
    x[16]     c2        697
    x[16]     c3        391
    x[16]     c4        815
    x[16]     c5        350
    x[16]     OBJ       -612
    x[17]     c1        81
    x[17]     c2        528
    x[17]     c3        339
    x[17]     c4        881
    x[17]     c5        163
    x[17]     OBJ       -880
    x[18]     c1        512
    x[18]     c2        385
    x[18]     c3        20
    x[18]     c4        875
    x[18]     c5        780
    x[18]     OBJ       -458
    x[19]     c1        511
    x[19]     c2        527
    x[19]     c3        969
    x[19]     c4        357
    x[19]     c5        956
    x[19]     OBJ       -612
    x[20]     c1        790
    x[20]     c2        609
    x[20]     c3        93
    x[20]     c4        750
    x[20]     c5        411
    x[20]     OBJ       -742
    x[21]     c1        625
    x[21]     c2        544
    x[21]     c3        258
    x[21]     c4        846
    x[21]     c5        647
    x[21]     OBJ       -495
    x[22]     c1        882
    x[22]     c2        402
    x[22]     c3        383
    x[22]     c4        682
    x[22]     c5        274
    x[22]     OBJ       -823
    x[23]     c1        405
    x[23]     c2        482
    x[23]     c3        997
    x[23]     c4        594
    x[23]     c5        752
    x[23]     OBJ       -802
    x[24]     c1        328
    x[24]     c2        90
    x[24]     c3        992
    x[24]     c4        876
    x[24]     c5        707
    x[24]     OBJ       -939
    x[25]     c1        39
    x[25]     c2        22
    x[25]     c3        998
    x[25]     c4        470
    x[25]     c5        446
    x[25]     OBJ       -721
    x[26]     c1        852
    x[26]     c2        461
    x[26]     c3        722
    x[26]     c4        371
    x[26]     c5        555
    x[26]     OBJ       -557
    x[27]     c1        993
    x[27]     c2        708
    x[27]     c3        59
    x[27]     c4        972
    x[27]     c5        980
    x[27]     OBJ       -860
    x[28]     c1        844
    x[28]     c2        524
    x[28]     c3        307
    x[28]     c4        287
    x[28]     c5        235
    x[28]     OBJ       -162
    x[29]     c1        28
    x[29]     c2        140
    x[29]     c3        598
    x[29]     c4        743
    x[29]     c5        558
    x[29]     OBJ       -141
    x[30]     c1        459
    x[30]     c2        858
    x[30]     c3        591
    x[30]     c4        601
    x[30]     c5        706
    x[30]     OBJ       -13
RHS
    rhs       c1        7682
    rhs       c2        7088
    rhs       c3        7424
    rhs       c4        8178
    rhs       c5        7436
RANGES
BOUNDS
 BV bounds    x[1]
 BV bounds    x[2]
 BV bounds    x[3]
 BV bounds    x[4]
 BV bounds    x[5]
 BV bounds    x[6]
 BV bounds    x[7]
 BV bounds    x[8]
 BV bounds    x[9]
 BV bounds    x[10]
 BV bounds    x[11]
 BV bounds    x[12]
 BV bounds    x[13]
 BV bounds    x[14]
 BV bounds    x[15]
 BV bounds    x[16]
 BV bounds    x[17]
 BV bounds    x[18]
 BV bounds    x[19]
 BV bounds    x[20]
 BV bounds    x[21]
 BV bounds    x[22]
 BV bounds    x[23]
 BV bounds    x[24]
 BV bounds    x[25]
 BV bounds    x[26]
 BV bounds    x[27]
 BV bounds    x[28]
 BV bounds    x[29]
 BV bounds    x[30]
ENDATA
